NAME 
ROWS
 N  OBJ
 L  R0      
 L  R1      
 L  R2      
 E  R3      
 E  R4      
 E  R5      
 E  R6      
 E  R7      
 E  R8      
 E  R9      
 E  R10     
 E  R11     
 E  R12     
 E  R13     
 E  R14     
 E  R15     
 E  R16     
 E  R17     
COLUMNS
    MARKER    'MARKER'                 'INTORG'
    I0(10)    OBJ       -149
    I0(10)    R0        146
    I0(10)    R1        81
    I0(10)    R2        95
    I0(10)    R4        19
    I0(10)    R5        -1
    I0(10)    R6        12
    I0(10)    R7        15
    I0(10)    R8        17
    I0(10)    R9        15
    I0(10)    R17       1
    I1(10)    OBJ       57
    I1(10)    R0        35
    I1(10)    R1        -69
    I1(10)    R2        -55
    I1(10)    R3        17
    I1(10)    R4        13
    I1(10)    R5        1
    I1(10)    R6        14
    I1(10)    R7        1
    I1(10)    R8        1
    I1(10)    R17       1
    I2(8)     OBJ       -174
    I2(8)     R0        -134
    I2(8)     R1        -97
    I2(8)     R2        147
    I2(8)     R5        19
    I2(8)     R6        18
    I2(8)     R7        17
    I2(8)     R8        10
    I2(8)     R17       1
    I3(10)    OBJ       140
    I3(10)    R0        -101
    I3(10)    R1        4
    I3(10)    R2        -155
    I3(10)    R3        19
    I3(10)    R4        14
    I3(10)    R6        16
    I3(10)    R7        5
    I3(10)    R8        13
    I3(10)    R9        16
    I3(10)    R17       1
    I4(7)     OBJ       -111
    I4(7)     R0        103
    I4(7)     R1        -174
    I4(7)     R2        -69
    I4(7)     R3        3
    I4(7)     R8        18
    I4(7)     R9        13
    I4(7)     R17       1
    I5(10)    OBJ       -122
    I5(10)    R0        -180
    I5(10)    R1        173
    I5(10)    R2        -135
    I5(10)    R3        19
    I5(10)    R5        19
    I5(10)    R6        4
    I5(10)    R7        10
    I5(10)    R8        10
    I5(10)    R9        13
    I5(10)    R17       1
    I6(9)     OBJ       186
    I6(9)     R0        63
    I6(9)     R1        98
    I6(9)     R2        12
    I6(9)     R3        5
    I6(9)     R5        15
    I6(9)     R6        12
    I6(9)     R8        17
    I6(9)     R9        15
    I6(9)     R17       1
    MARKER    'MARKER'                 'INTEND'
    C7(11)    OBJ       -2
    C7(11)    R1        5
    C7(11)    R2        -10
    C7(11)    R4        13
    C7(11)    R5        9
    C7(11)    R9        14
    C7(11)    R10       16
    C7(11)    R11       1
    C7(11)    R12       6
    C7(11)    R13       19
    C7(11)    R14       14
    C7(11)    R15       16
    C8(13)    OBJ       -1
    C8(13)    R0        -7
    C8(13)    R1        -10
    C8(13)    R2        -3
    C8(13)    R4        17
    C8(13)    R6        5
    C8(13)    R8        10
    C8(13)    R9        16
    C8(13)    R11       1
    C8(13)    R12       11
    C8(13)    R13       17
    C8(13)    R14       16
    C8(13)    R15       4
    C8(13)    R16       14
    C9(9)     OBJ       -1
    C9(9)     R0        3
    C9(9)     R1        8
    C9(9)     R2        3
    C9(9)     R4        9
    C9(9)     R8        2
    C9(9)     R9        -1
    C9(9)     R10       13
    C9(9)     R14       9
    C9(9)     R16       11
    C10(12)   OBJ       5
    C10(12)   R0        -5
    C10(12)   R1        6
    C10(12)   R2        -3
    C10(12)   R3        5
    C10(12)   R6        12
    C10(12)   R8        -1
    C10(12)   R9        15
    C10(12)   R12       3
    C10(12)   R13       16
    C10(12)   R14       8
    C10(12)   R15       6
    C10(12)   R16       -1
    C11(12)   OBJ       3
    C11(12)   R0        -9
    C11(12)   R1        -6
    C11(12)   R4        9
    C11(12)   R8        16
    C11(12)   R9        10
    C11(12)   R10       -1
    C11(12)   R11       -1
    C11(12)   R12       3
    C11(12)   R13       6
    C11(12)   R14       3
    C11(12)   R15       9
    C11(12)   R16       1
    C12(11)   OBJ       8
    C12(11)   R0        -4
    C12(11)   R1        7
    C12(11)   R2        6
    C12(11)   R5        16
    C12(11)   R6        17
    C12(11)   R8        18
    C12(11)   R9        16
    C12(11)   R12       2
    C12(11)   R13       8
    C12(11)   R14       7
    C12(11)   R15       8
    C13(10)   OBJ       -2
    C13(10)   R0        6
    C13(10)   R1        -10
    C13(10)   R2        1
    C13(10)   R3        1
    C13(10)   R4        -1
    C13(10)   R8        13
    C13(10)   R9        9
    C13(10)   R11       6
    C13(10)   R15       13
    C13(10)   R16       17
    C14(13)   OBJ       -8
    C14(13)   R0        -7
    C14(13)   R1        1
    C14(13)   R2        -5
    C14(13)   R6        12
    C14(13)   R7        18
    C14(13)   R8        19
    C14(13)   R9        10
    C14(13)   R10       8
    C14(13)   R11       10
    C14(13)   R13       3
    C14(13)   R14       19
    C14(13)   R15       3
    C14(13)   R16       7
    C15(1)    R3        1
    C16(1)    R4        1
    C17(1)    R5        1
    C18(1)    R6        1
    C19(1)    R7        1
    C20(1)    R8        1
    C21(1)    R9        1
    C22(1)    R10       1
    C23(1)    R11       1
    C24(1)    R12       1
    C25(1)    R13       1
    C26(1)    R14       1
    C27(1)    R15       1
    C28(1)    R16       1
    C29(1)    R17       1
RHS
    RHS1      R0        -2.7190033444816157e+02
    RHS1      R1        -1.5941806020067108e+02
    RHS1      R2        2.6405551839464789e+02
    RHS1      R3        76
    RHS1      R4        80
    RHS1      R5        74
    RHS1      R6        78
    RHS1      R7        88
    RHS1      R8        54
    RHS1      R9        76
    RHS1      R10       89
    RHS1      R11       93
    RHS1      R12       59
    RHS1      R13       60
    RHS1      R14       92
    RHS1      R15       53
    RHS1      R16       82
    RHS1      R17       2
BOUNDS
 UP BND1      I0(10)    2
 UP BND1      I1(10)    2
 UP BND1      I2(8)     2
 UP BND1      I3(10)    2
 UP BND1      I4(7)     2
 UP BND1      I5(10)    2
 UP BND1      I6(9)     2
ENDATA
